Mg3Sb2
1.0
        4.5679998398         0.0000000000         0.0000000000
       -2.2839999199         3.9560039057         0.0000000000
        0.0000000000         0.0000000000         7.2290000916
   Mg   Sb
    3    2
Direct
     0.000000000         0.000000000         0.000000000
     0.333333343         0.666666687         0.633899987
     0.666666627         0.333333313         0.366100013
     0.333333343         0.666666687         0.228300005
     0.666666627         0.333333313         0.771700025
