Mg3Sb2                                  
   1.00000000000000     
     4.5978499023570505    0.0000000000000000    0.0000000000000000
    -2.2989249511785252    3.9818548181779838    0.0000000000000000
    -0.0000000000000000    0.0000000000000000    7.2706383437158566
   Mg   Sb
     3     2
Direct
 -0.0000000000000000 -0.0000000000000000  0.0000000000000000
  0.3333333429999996  0.6666666870000029  0.6320364358797170
  0.6666666269999979  0.3333333129999971  0.3679635641202830
  0.3333333429999996  0.6666666870000029  0.2253766570359614
  0.6666666269999979  0.3333333129999971  0.7746233729640413
 
  0.00000000E+00  0.00000000E+00  0.00000000E+00
  0.00000000E+00  0.00000000E+00  0.00000000E+00
  0.00000000E+00  0.00000000E+00  0.00000000E+00
  0.00000000E+00  0.00000000E+00  0.00000000E+00
  0.00000000E+00  0.00000000E+00  0.00000000E+00
