 ISTART=0  
 ICHARG=2 
 ENCUT=400
 EDIFF=1E-6
 NELM=300 
 ISMEAR=-5
 IALGO=38
 NPAR=8
