Automatically generated mesh
     250
Reciprocal lattice
    0.00000000000000    0.00000000000000    0.00000000000000             1
    0.12500000000000    0.00000000000000    0.00000000000000             6
    0.25000000000000    0.00000000000000    0.00000000000000             6
    0.37500000000000    0.00000000000000    0.00000000000000             6
    0.50000000000000    0.00000000000000    0.00000000000000             3
    0.12500000000000    0.12500000000000    0.00000000000000             6
    0.25000000000000    0.12500000000000    0.00000000000000            12
    0.37500000000000    0.12500000000000    0.00000000000000            12
    0.25000000000000    0.25000000000000    0.00000000000000             6
    0.37500000000000    0.25000000000000    0.00000000000000             6
    0.00000000000000    0.00000000000000    0.20000000000000             2
    0.12500000000000    0.00000000000000    0.20000000000000             6
    0.25000000000000    0.00000000000000    0.20000000000000             6
    0.37500000000000    0.00000000000000    0.20000000000000             6
    0.50000000000000    0.00000000000000    0.20000000000000             6
   -0.37500000000000   -0.00000000000000    0.20000000000000             6
   -0.25000000000000   -0.00000000000000    0.20000000000000             6
   -0.12500000000000   -0.00000000000000    0.20000000000000             6
    0.12500000000000    0.12500000000000    0.20000000000000            12
    0.25000000000000    0.12500000000000    0.20000000000000            12
    0.37500000000000    0.12500000000000    0.20000000000000            12
    0.50000000000000    0.12500000000000    0.20000000000000            12
   -0.37500000000000    0.12500000000000    0.20000000000000            12
    0.25000000000000    0.25000000000000    0.20000000000000            12
    0.37500000000000    0.25000000000000    0.20000000000000            12
    0.00000000000000    0.00000000000000    0.40000000000000             2
    0.12500000000000    0.00000000000000    0.40000000000000             6
    0.25000000000000    0.00000000000000    0.40000000000000             6
    0.37500000000000    0.00000000000000    0.40000000000000             6
    0.50000000000000    0.00000000000000    0.40000000000000             6
   -0.37500000000000   -0.00000000000000    0.40000000000000             6
   -0.25000000000000   -0.00000000000000    0.40000000000000             6
   -0.12500000000000   -0.00000000000000    0.40000000000000             6
    0.12500000000000    0.12500000000000    0.40000000000000            12
    0.25000000000000    0.12500000000000    0.40000000000000            12
    0.37500000000000    0.12500000000000    0.40000000000000            12
    0.50000000000000    0.12500000000000    0.40000000000000            12
   -0.37500000000000    0.12500000000000    0.40000000000000            12
    0.25000000000000    0.25000000000000    0.40000000000000            12
    0.37500000000000    0.25000000000000    0.40000000000000            12
   0.00000000  0.00000000  0.00000000       0.0
   0.01724138  0.00000000  0.00000000       0.0
   0.03448276  0.00000000  0.00000000       0.0
   0.05172414  0.00000000  0.00000000       0.0
   0.06896552  0.00000000  0.00000000       0.0
   0.08620690  0.00000000  0.00000000       0.0
   0.10344828  0.00000000  0.00000000       0.0
   0.12068966  0.00000000  0.00000000       0.0
   0.13793103  0.00000000  0.00000000       0.0
   0.15517241  0.00000000  0.00000000       0.0
   0.17241379  0.00000000  0.00000000       0.0
   0.18965517  0.00000000  0.00000000       0.0
   0.20689655  0.00000000  0.00000000       0.0
   0.22413793  0.00000000  0.00000000       0.0
   0.24137931  0.00000000  0.00000000       0.0
   0.25862069  0.00000000  0.00000000       0.0
   0.27586207  0.00000000  0.00000000       0.0
   0.29310345  0.00000000  0.00000000       0.0
   0.31034483  0.00000000  0.00000000       0.0
   0.32758621  0.00000000  0.00000000       0.0
   0.34482759  0.00000000  0.00000000       0.0
   0.36206897  0.00000000  0.00000000       0.0
   0.37931034  0.00000000  0.00000000       0.0
   0.39655172  0.00000000  0.00000000       0.0
   0.41379310  0.00000000  0.00000000       0.0
   0.43103448  0.00000000  0.00000000       0.0
   0.44827586  0.00000000  0.00000000       0.0
   0.46551724  0.00000000  0.00000000       0.0
   0.48275862  0.00000000  0.00000000       0.0
   0.50000000  0.00000000  0.00000000       0.0
   0.50000000  0.00000000  0.00000000       0.0
   0.49425287  0.01149425  0.00000000       0.0
   0.48850575  0.02298851  0.00000000       0.0
   0.48275862  0.03448276  0.00000000       0.0
   0.47701149  0.04597701  0.00000000       0.0
   0.47126437  0.05747126  0.00000000       0.0
   0.46551724  0.06896552  0.00000000       0.0
   0.45977011  0.08045977  0.00000000       0.0
   0.45402299  0.09195402  0.00000000       0.0
   0.44827586  0.10344828  0.00000000       0.0
   0.44252874  0.11494253  0.00000000       0.0
   0.43678161  0.12643678  0.00000000       0.0
   0.43103448  0.13793103  0.00000000       0.0
   0.42528736  0.14942529  0.00000000       0.0
   0.41954023  0.16091954  0.00000000       0.0
   0.41379310  0.17241379  0.00000000       0.0
   0.40804598  0.18390805  0.00000000       0.0
   0.40229885  0.19540230  0.00000000       0.0
   0.39655172  0.20689655  0.00000000       0.0
   0.39080460  0.21839080  0.00000000       0.0
   0.38505747  0.22988506  0.00000000       0.0
   0.37931034  0.24137931  0.00000000       0.0
   0.37356322  0.25287356  0.00000000       0.0
   0.36781609  0.26436782  0.00000000       0.0
   0.36206897  0.27586207  0.00000000       0.0
   0.35632184  0.28735632  0.00000000       0.0
   0.35057471  0.29885057  0.00000000       0.0
   0.34482759  0.31034483  0.00000000       0.0
   0.33908046  0.32183908  0.00000000       0.0
   0.33333333  0.33333333  0.00000000       0.0
   0.33333333  0.33333333  0.00000000       0.0
   0.32183908  0.32183908  0.00000000       0.0
   0.31034483  0.31034483  0.00000000       0.0
   0.29885057  0.29885057  0.00000000       0.0
   0.28735632  0.28735632  0.00000000       0.0
   0.27586207  0.27586207  0.00000000       0.0
   0.26436782  0.26436782  0.00000000       0.0
   0.25287356  0.25287356  0.00000000       0.0
   0.24137931  0.24137931  0.00000000       0.0
   0.22988506  0.22988506  0.00000000       0.0
   0.21839080  0.21839080  0.00000000       0.0
   0.20689655  0.20689655  0.00000000       0.0
   0.19540230  0.19540230  0.00000000       0.0
   0.18390805  0.18390805  0.00000000       0.0
   0.17241379  0.17241379  0.00000000       0.0
   0.16091954  0.16091954  0.00000000       0.0
   0.14942529  0.14942529  0.00000000       0.0
   0.13793103  0.13793103  0.00000000       0.0
   0.12643678  0.12643678  0.00000000       0.0
   0.11494253  0.11494253  0.00000000       0.0
   0.10344828  0.10344828  0.00000000       0.0
   0.09195402  0.09195402  0.00000000       0.0
   0.08045977  0.08045977  0.00000000       0.0
   0.06896552  0.06896552  0.00000000       0.0
   0.05747126  0.05747126  0.00000000       0.0
   0.04597701  0.04597701  0.00000000       0.0
   0.03448276  0.03448276  0.00000000       0.0
   0.02298851  0.02298851  0.00000000       0.0
   0.01149425  0.01149425  0.00000000       0.0
   0.00000000  0.00000000  0.00000000       0.0
   0.00000000  0.00000000  0.00000000       0.0
   0.00000000  0.00000000  0.01724138       0.0
   0.00000000  0.00000000  0.03448276       0.0
   0.00000000  0.00000000  0.05172414       0.0
   0.00000000  0.00000000  0.06896552       0.0
   0.00000000  0.00000000  0.08620690       0.0
   0.00000000  0.00000000  0.10344828       0.0
   0.00000000  0.00000000  0.12068966       0.0
   0.00000000  0.00000000  0.13793103       0.0
   0.00000000  0.00000000  0.15517241       0.0
   0.00000000  0.00000000  0.17241379       0.0
   0.00000000  0.00000000  0.18965517       0.0
   0.00000000  0.00000000  0.20689655       0.0
   0.00000000  0.00000000  0.22413793       0.0
   0.00000000  0.00000000  0.24137931       0.0
   0.00000000  0.00000000  0.25862069       0.0
   0.00000000  0.00000000  0.27586207       0.0
   0.00000000  0.00000000  0.29310345       0.0
   0.00000000  0.00000000  0.31034483       0.0
   0.00000000  0.00000000  0.32758621       0.0
   0.00000000  0.00000000  0.34482759       0.0
   0.00000000  0.00000000  0.36206897       0.0
   0.00000000  0.00000000  0.37931034       0.0
   0.00000000  0.00000000  0.39655172       0.0
   0.00000000  0.00000000  0.41379310       0.0
   0.00000000  0.00000000  0.43103448       0.0
   0.00000000  0.00000000  0.44827586       0.0
   0.00000000  0.00000000  0.46551724       0.0
   0.00000000  0.00000000  0.48275862       0.0
   0.00000000  0.00000000  0.50000000       0.0
   0.00000000  0.00000000  0.50000000       0.0
   0.01724138  0.00000000  0.50000000       0.0
   0.03448276  0.00000000  0.50000000       0.0
   0.05172414  0.00000000  0.50000000       0.0
   0.06896552  0.00000000  0.50000000       0.0
   0.08620690  0.00000000  0.50000000       0.0
   0.10344828  0.00000000  0.50000000       0.0
   0.12068966  0.00000000  0.50000000       0.0
   0.13793103  0.00000000  0.50000000       0.0
   0.15517241  0.00000000  0.50000000       0.0
   0.17241379  0.00000000  0.50000000       0.0
   0.18965517  0.00000000  0.50000000       0.0
   0.20689655  0.00000000  0.50000000       0.0
   0.22413793  0.00000000  0.50000000       0.0
   0.24137931  0.00000000  0.50000000       0.0
   0.25862069  0.00000000  0.50000000       0.0
   0.27586207  0.00000000  0.50000000       0.0
   0.29310345  0.00000000  0.50000000       0.0
   0.31034483  0.00000000  0.50000000       0.0
   0.32758621  0.00000000  0.50000000       0.0
   0.34482759  0.00000000  0.50000000       0.0
   0.36206897  0.00000000  0.50000000       0.0
   0.37931034  0.00000000  0.50000000       0.0
   0.39655172  0.00000000  0.50000000       0.0
   0.41379310  0.00000000  0.50000000       0.0
   0.43103448  0.00000000  0.50000000       0.0
   0.44827586  0.00000000  0.50000000       0.0
   0.46551724  0.00000000  0.50000000       0.0
   0.48275862  0.00000000  0.50000000       0.0
   0.50000000  0.00000000  0.50000000       0.0
   0.50000000  0.00000000  0.50000000       0.0
   0.49425287  0.01149425  0.50000000       0.0
   0.48850575  0.02298851  0.50000000       0.0
   0.48275862  0.03448276  0.50000000       0.0
   0.47701149  0.04597701  0.50000000       0.0
   0.47126437  0.05747126  0.50000000       0.0
   0.46551724  0.06896552  0.50000000       0.0
   0.45977011  0.08045977  0.50000000       0.0
   0.45402299  0.09195402  0.50000000       0.0
   0.44827586  0.10344828  0.50000000       0.0
   0.44252874  0.11494253  0.50000000       0.0
   0.43678161  0.12643678  0.50000000       0.0
   0.43103448  0.13793103  0.50000000       0.0
   0.42528736  0.14942529  0.50000000       0.0
   0.41954023  0.16091954  0.50000000       0.0
   0.41379310  0.17241379  0.50000000       0.0
   0.40804598  0.18390805  0.50000000       0.0
   0.40229885  0.19540230  0.50000000       0.0
   0.39655172  0.20689655  0.50000000       0.0
   0.39080460  0.21839080  0.50000000       0.0
   0.38505747  0.22988506  0.50000000       0.0
   0.37931034  0.24137931  0.50000000       0.0
   0.37356322  0.25287356  0.50000000       0.0
   0.36781609  0.26436782  0.50000000       0.0
   0.36206897  0.27586207  0.50000000       0.0
   0.35632184  0.28735632  0.50000000       0.0
   0.35057471  0.29885057  0.50000000       0.0
   0.34482759  0.31034483  0.50000000       0.0
   0.33908046  0.32183908  0.50000000       0.0
   0.33333333  0.33333333  0.50000000       0.0
   0.33333333  0.33333333  0.50000000       0.0
   0.32183908  0.32183908  0.50000000       0.0
   0.31034483  0.31034483  0.50000000       0.0
   0.29885057  0.29885057  0.50000000       0.0
   0.28735632  0.28735632  0.50000000       0.0
   0.27586207  0.27586207  0.50000000       0.0
   0.26436782  0.26436782  0.50000000       0.0
   0.25287356  0.25287356  0.50000000       0.0
   0.24137931  0.24137931  0.50000000       0.0
   0.22988506  0.22988506  0.50000000       0.0
   0.21839080  0.21839080  0.50000000       0.0
   0.20689655  0.20689655  0.50000000       0.0
   0.19540230  0.19540230  0.50000000       0.0
   0.18390805  0.18390805  0.50000000       0.0
   0.17241379  0.17241379  0.50000000       0.0
   0.16091954  0.16091954  0.50000000       0.0
   0.14942529  0.14942529  0.50000000       0.0
   0.13793103  0.13793103  0.50000000       0.0
   0.12643678  0.12643678  0.50000000       0.0
   0.11494253  0.11494253  0.50000000       0.0
   0.10344828  0.10344828  0.50000000       0.0
   0.09195402  0.09195402  0.50000000       0.0
   0.08045977  0.08045977  0.50000000       0.0
   0.06896552  0.06896552  0.50000000       0.0
   0.05747126  0.05747126  0.50000000       0.0
   0.04597701  0.04597701  0.50000000       0.0
   0.03448276  0.03448276  0.50000000       0.0
   0.02298851  0.02298851  0.50000000       0.0
   0.01149425  0.01149425  0.50000000       0.0
   0.00000000  0.00000000  0.50000000       0.0
Tetrahedra
       446    0.00052083333333
         4         2         2         6        18
         4         1         2         2        18
         4         1         2        11        18
         4         2         6        18        19
         8         2        12        18        19
         8         2        11        12        18
         8         3         6         7        19
         8         2         3         6        19
         4         2         3        12        19
         4         3         7        19        20
         4         3        13        19        20
         4         3        12        13        19
         4         4         7         8        20
         4         3         4         7        20
         4         3         4        13        20
         4         4         8        20        21
         4         4        14        20        21
         4         4        13        14        20
         4         5         8         8        21
         4         4         5         8        21
         4         4         5        14        21
         4         5         8        21        22
         4         5        15        21        22
         4         5        14        15        21
         4         4         7         8        22
         4         4         5         8        22
         4         4         5        15        22
         4         4         7        22        23
         4         4        16        22        23
         4         4        15        16        22
         4         3         6         7        23
         4         3         4         7        23
         4         3         4        16        23
         4         3         6        19        23
         4         3        17        19        23
         4         3        16        17        23
         4         2         2         6        19
         4         2         3        17        19
         4         2         2        12        19
         4         2        17        18        19
         4         1         2         2        12
         4         1         2        12        18
         4         1        11        12        18
         4         3         6         7        17
         4         2         3         6        17
         4         2         6        17        18
         4         6         7        17        23
         4         6        17        19        23
         4         6        17        18        19
         4         7         7         9        23
         4         6         7         7        23
         4         6         7        19        23
         4         7         9        23        24
         8         7        20        23        24
         8         7        19        20        23
         8         8         9        10        24
         8         7         8         9        24
         4         7         8        20        24
         4         8        10        24        25
         4         8        21        24        25
         4         8        20        21        24
         8         8         9        10        25
         4         8         8        10        25
         4         8         8        21        25
         4         8         9        24        25
         4         8        22        24        25
         8         8        21        22        25
         4         7         7         9        24
         4         7         8        22        24
         4         7         7        20        24
         4         7        22        23        24
         4         3         6         7        20
         4         6         7         7        20
         4         6         7        20        23
         4         3         6        13        20
         4         6        13        19        20
         4         6        19        20        23
         4         2         3         6        13
         4         2         6        13        19
         4         2        12        13        19
         4         4         7         8        16
         4         3         4         7        16
         4         3         7        16        17
         4         7         8        16        22
         4         7        16        22        23
         4         7        16        17        23
         4         8         9        10        22
         4         7         8         9        22
         4         7         9        22        23
         4         9        10        22        25
         4         9        22        24        25
         4         9        22        23        24
         4        10        10        10        25
         8         9        10        10        25
         4         9        10        24        25
         4        10        10        25        25
         4        10        25        25        25
         8        10        24        25        25
         4         9        10        25        25
         4         8         9        21        25
         4         9        21        24        25
         4         9        24        25        25
         4         4         7         8        21
         4         7         8         9        21
         4         7         9        21        24
         4         4         7        14        21
         4         7        14        20        21
         4         7        20        21        24
         4         3         4         7        14
         4         3         7        14        20
         4         3        13        14        20
         4         5         8         8        15
         8         4         5         8        15
         4         4         8        15        16
         4         8         8        15        21
         8         8        15        21        22
         4         8        15        16        22
         4         8         9        10        21
         4         8         8        10        21
         4         8        10        21        22
         4         9        10        21        24
         4        10        21        24        25
         4        10        21        22        25
         4         9        10        10        24
         4        10        10        24        25
         4         8        10        22        24
         4        10        22        24        25
         4         5         8         8        22
         4         8         8        10        22
         4         8        10        22        25
         4         5         8        15        22
         4         4         8        15        21
         4         4        14        15        21
         4         4         7         8        14
         4         4         5         8        14
         4         5         8        14        15
         4         7         8        14        20
         4         8        14        20        21
         4         8        14        15        21
         4         7         7         9        20
         4         7         8         9        20
         4         8         9        20        21
         4         7         9        20        23
         4         9        20        23        24
         4         9        20        21        24
         4         4         7         8        23
         4         7         8         9        23
         4         8         9        23        24
         4         4         8        16        23
         4         8        16        22        23
         4         8        22        23        24
         4         4         5         8        16
         4         5         8        16        22
         4         5        15        16        22
         4         3         6         7        13
         4         3         4         7        13
         4         4         7        13        14
         4         6         7        13        19
         4         7        13        19        20
         4         7        13        14        20
         4         6         7         7        19
         4         7         7        19        20
         4         3         7        17        19
         4         7        17        19        23
         4         3         4         7        17
         4         4         7        17        23
         4         4        16        17        23
         4         2         2         6        12
         4         2         3         6        12
         4         3         6        12        13
         4         2         6        12        18
         4         6        12        18        19
         4         6        12        13        19
         4         2         3         6        18
         4         3         6        18        19
         4         3        17        18        19
         4         1         2         2        11
         4         2         2        11        12
         4        12        18        19        33
         4        11        12        18        33
         4        11        12        26        33
         4        12        19        33        34
         4        12        27        33        34
         4        12        26        27        33
         4        13        19        20        34
         4        12        13        19        34
         4        12        13        27        34
         4        13        20        34        35
         4        13        28        34        35
         4        13        27        28        34
         4        14        20        21        35
         4        13        14        20        35
         4        13        14        28        35
         4        14        21        35        36
         4        14        29        35        36
         4        14        28        29        35
         4        15        21        22        36
         4        14        15        21        36
         4        14        15        29        36
         4        15        22        36        37
         4        15        30        36        37
         4        15        29        30        36
         4        16        22        23        37
         4        15        16        22        37
         4        15        16        30        37
         4        16        23        37        38
         4        16        31        37        38
         4        16        30        31        37
         4        17        19        23        38
         4        16        17        23        38
         4        16        17        31        38
         4        17        19        34        38
         4        17        32        34        38
         4        17        31        32        38
         4        12        18        19        34
         4        17        18        19        34
         4        17        18        32        34
         4        12        18        27        34
         4        18        27        33        34
         4        18        32        33        34
         4        11        12        18        27
         4        11        18        27        33
         4        11        26        27        33
         4        17        19        23        32
         4        17        18        19        32
         4        18        19        32        33
         4        19        23        32        38
         4        19        32        34        38
         4        19        32        33        34
         4        20        23        24        38
         4        19        20        23        38
         4        19        20        34        38
         4        20        24        38        39
         4        20        35        38        39
         4        20        34        35        38
         4        21        24        25        39
         4        20        21        24        39
         4        20        21        35        39
         4        21        25        39        40
         4        21        36        39        40
         4        21        35        36        39
         4        22        24        25        40
         4        21        22        25        40
         4        21        22        36        40
         4        22        24        39        40
         4        22        37        39        40
         4        22        36        37        40
         4        20        23        24        39
         4        22        23        24        39
         4        22        23        37        39
         4        20        23        35        39
         4        23        35        38        39
         4        23        37        38        39
         4        13        19        20        35
         4        19        20        23        35
         4        19        23        35        38
         4        13        19        28        35
         4        19        28        34        35
         4        19        34        35        38
         4        12        13        19        28
         4        12        19        28        34
         4        12        27        28        34
         4        16        22        23        31
         4        16        17        23        31
         4        17        23        31        32
         4        22        23        31        37
         4        23        31        37        38
         4        23        31        32        38
         4        22        24        25        37
         4        22        23        24        37
         4        23        24        37        38
         4        24        25        37        40
         4        24        37        39        40
         4        24        37        38        39
         4        25        25        25        40
         8        24        25        25        40
         4        24        25        39        40
         4        25        25        40        40
         4        25        40        40        40
         8        25        39        40        40
         4        21        24        25        40
         4        24        25        40        40
         4        21        24        36        40
         4        24        36        39        40
         4        24        39        40        40
         4        14        20        21        36
         4        20        21        24        36
         4        20        24        36        39
         4        14        20        29        36
         4        20        29        35        36
         4        20        35        36        39
         4        13        14        20        29
         4        13        20        29        35
         4        13        28        29        35
         4        15        21        22        30
         4        15        16        22        30
         4        16        22        30        31
         4        21        22        30        36
         4        22        30        36        37
         4        22        30        31        37
         4        21        24        25        36
         4        21        22        25        36
         4        22        25        36        37
         4        24        25        36        39
         4        25        36        39        40
         4        25        36        37        40
         4        22        24        25        39
         4        24        25        25        39
         4        25        25        39        40
         4        22        25        37        39
         4        25        37        39        40
         4        15        21        22        37
         4        21        22        25        37
         4        21        25        37        40
         4        15        21        30        37
         4        21        30        36        37
         4        21        36        37        40
         4        14        15        21        30
         4        14        21        30        36
         4        14        29        30        36
         4        14        20        21        29
         4        14        15        21        29
         4        15        21        29        30
         4        20        21        29        35
         4        21        29        35        36
         4        21        29        30        36
         4        20        23        24        35
         4        20        21        24        35
         4        21        24        35        36